Geographic Exponential Decay
20 67 172 70 2 260 262 291 79 32 237 286 1 226 294 283 148 246 20 33 188
p edge 320 1141
e 0 314 1.0
e 0 177 1.0
e 1 226 10.0
e 1 108 62.0
e 1 280 86.0
e 1 126 43.0
e 1 243 91.0
e 1 129 9.0
e 1 215 6.0
e 1 147 56.0
e 1 202 92.0
e 1 26 7.0
e 1 205 27.0
e 1 297 20.0
e 1 71 86.0
e 1 201 78.0
e 1 27 68.0
e 1 127 72.0
e 1 39 20.0
e 1 281 74.0
e 1 119 40.0
e 1 181 63.0
e 1 174 26.0
e 1 120 34.0
e 1 214 68.0
e 1 128 80.0
e 1 314 57.0
e 1 32 6.0
e 1 310 28.0
e 1 300 98.0
e 1 9 76.0
e 1 69 20.0
e 1 52 78.0
e 1 230 25.0
e 1 70 82.0
e 1 170 49.0
e 1 296 7.0
e 1 168 83.0
e 1 282 10.0
e 2 139 23.0
e 2 167 1.0
e 2 168 73.0
e 2 135 70.0
e 2 76 24.0
e 2 201 36.0
e 2 23 56.0
e 2 66 17.0
e 2 134 96.0
e 2 308 84.0
e 2 181 81.0
e 2 193 23.0
e 2 53 58.0
e 2 4 35.0
e 2 15 8.0
e 2 264 58.0
e 2 95 71.0
e 2 254 32.0
e 2 250 75.0
e 2 309 60.0
e 2 93 43.0
e 2 303 77.0
e 2 144 62.0
e 2 278 59.0
e 2 213 60.0
e 2 297 44.0
e 2 196 54.0
e 2 62 84.0
e 2 89 88.0
e 2 39 28.0
e 2 64 29.0
e 2 10 4.0
e 2 47 93.0
e 2 137 92.0
e 2 103 30.0
e 2 204 56.0
e 2 305 49.0
e 3 155 1.0
e 3 192 23.0
e 4 81 1.0
e 5 211 3.0
e 5 21 1.0
e 6 114 10.0
e 6 68 1.0
e 6 20 15.0
e 7 229 10.0
e 7 271 2.0
e 8 145 1.0
e 8 316 2.0
e 9 51 2.0
e 10 171 1.0
e 11 55 3.0
e 11 124 1.0
e 11 273 4.0
e 12 90 1.0
e 12 162 1.0
e 12 112 6.0
e 13 263 4.0
e 13 204 1.0
e 14 87 1.0
e 14 277 1.0
e 15 125 6.0
e 15 60 9.0
e 16 180 1.0
e 16 147 1.0
e 17 134 47.0
e 17 56 4.0
e 18 235 1.0
e 18 2 87.0
e 18 152 1.0
e 19 84 14.0
e 19 5 9.0
e 19 124 7.0
e 19 105 5.0
e 19 248 4.0
e 19 93 3.0
e 19 201 25.0
e 19 312 21.0
e 19 114 24.0
e 19 133 19.0
e 20 167 62.0
e 20 45 25.0
e 20 75 41.0
e 20 276 98.0
e 20 76 8.0
e 20 126 90.0
e 20 222 70.0
e 20 269 93.0
e 20 316 81.0
e 20 90 87.0
e 20 86 25.0
e 20 53 89.0
e 20 28 58.0
e 20 69 83.0
e 20 34 83.0
e 20 114 77.0
e 20 77 92.0
e 20 4 6.0
e 20 191 64.0
e 20 225 63.0
e 20 78 24.0
e 20 221 67.0
e 20 312 96.0
e 20 60 82.0
e 20 64 24.0
e 20 150 3.0
e 20 228 73.0
e 20 110 71.0
e 20 229 68.0
e 20 0 71.0
e 20 89 99.0
e 20 38 12.0
e 20 181 63.0
e 20 134 51.0
e 20 272 92.0
e 20 240 58.0
e 21 255 1.0
e 22 33 4.0
e 22 207 2.0
e 23 75 2.0
e 24 214 2.0
e 24 1 30.0
e 24 174 4.0
e 25 245 2.0
e 25 90 1.0
e 26 123 1.0
e 27 239 2.0
e 28 236 6.0
e 29 177 4.0
e 29 272 5.0
e 29 62 2.0
e 29 49 6.0
e 29 1 24.0
e 30 134 45.0
e 30 110 2.0
e 31 84 2.0
e 31 292 2.0
e 32 128 49.0
e 32 116 25.0
e 32 191 88.0
e 32 237 4.0
e 32 253 30.0
e 32 92 11.0
e 32 192 90.0
e 32 315 1.0
e 32 46 16.0
e 32 57 18.0
e 32 283 99.0
e 32 3 36.0
e 32 66 68.0
e 32 56 43.0
e 32 143 18.0
e 32 89 14.0
e 32 254 7.0
e 32 285 54.0
e 32 267 62.0
e 32 4 30.0
e 32 202 29.0
e 32 64 12.0
e 32 193 32.0
e 32 242 14.0
e 32 36 21.0
e 32 109 27.0
e 32 2 92.0
e 32 309 59.0
e 32 311 32.0
e 32 127 88.0
e 32 125 19.0
e 32 165 17.0
e 32 153 62.0
e 32 294 37.0
e 32 175 23.0
e 32 5 94.0
e 33 92 59.0
e 33 230 6.0
e 33 46 33.0
e 33 264 82.0
e 33 65 76.0
e 33 77 14.0
e 33 52 64.0
e 33 0 99.0
e 33 20 64.0
e 33 298 68.0
e 33 17 88.0
e 33 38 57.0
e 33 135 15.0
e 33 138 78.0
e 33 196 13.0
e 33 255 42.0
e 33 290 53.0
e 33 163 81.0
e 33 273 3.0
e 33 174 93.0
e 33 62 71.0
e 33 169 5.0
e 33 18 95.0
e 33 142 64.0
e 33 165 86.0
e 33 19 83.0
e 33 172 45.0
e 33 175 10.0
e 33 296 29.0
e 33 219 59.0
e 33 284 25.0
e 33 8 60.0
e 33 225 100.0
e 33 226 84.0
e 33 271 73.0
e 33 199 50.0
e 34 211 6.0
e 35 109 2.0
e 35 60 8.0
e 35 16 6.0
e 36 280 1.0
e 37 114 1.0
e 37 0 2.0
e 39 273 4.0
e 40 312 18.0
e 40 15 2.0
e 41 148 87.0
e 41 275 1.0
e 42 251 2.0
e 42 143 1.0
e 42 218 1.0
e 43 69 7.0
e 43 66 6.0
e 43 65 10.0
e 43 149 4.0
e 43 57 10.0
e 44 174 5.0
e 44 245 1.0
e 45 265 11.0
e 47 45 1.0
e 48 14 1.0
e 48 153 10.0
e 49 257 1.0
e 50 224 9.0
e 50 309 8.0
e 50 221 10.0
e 50 78 9.0
e 50 119 4.0
e 51 182 1.0
e 52 264 6.0
e 52 30 3.0
e 52 79 61.0
e 54 23 1.0
e 54 301 1.0
e 55 203 1.0
e 56 133 3.0
e 58 275 4.0
e 58 301 1.0
e 59 214 1.0
e 59 267 1.0
e 60 164 8.0
e 60 178 2.0
e 61 174 3.0
e 61 285 5.0
e 61 33 85.0
e 63 75 1.0
e 63 266 1.0
e 63 303 5.0
e 67 24 71.0
e 67 290 3.0
e 67 139 7.0
e 67 162 93.0
e 67 206 68.0
e 67 264 57.0
e 67 309 59.0
e 67 55 69.0
e 67 109 59.0
e 67 33 6.0
e 67 291 63.0
e 67 138 14.0
e 67 2 4.0
e 67 16 69.0
e 67 15 33.0
e 67 82 4.0
e 67 150 11.0
e 67 270 45.0
e 67 57 81.0
e 67 159 54.0
e 67 310 72.0
e 67 168 25.0
e 67 3 9.0
e 67 274 58.0
e 67 68 15.0
e 67 81 7.0
e 67 200 6.0
e 67 180 66.0
e 67 174 97.0
e 67 69 92.0
e 67 50 46.0
e 67 97 19.0
e 67 283 36.0
e 67 219 34.0
e 67 116 21.0
e 67 211 74.0
e 67 201 37.0
e 68 228 2.0
e 69 274 6.0
e 70 174 28.0
e 70 265 76.0
e 70 9 98.0
e 70 244 5.0
e 70 181 93.0
e 70 47 53.0
e 70 146 95.0
e 70 11 6.0
e 70 13 63.0
e 70 290 16.0
e 70 292 73.0
e 70 214 71.0
e 70 113 40.0
e 70 183 54.0
e 70 77 33.0
e 70 21 34.0
e 70 129 94.0
e 70 14 35.0
e 70 271 56.0
e 70 318 14.0
e 70 158 81.0
e 70 150 35.0
e 70 228 84.0
e 70 211 61.0
e 70 140 27.0
e 70 15 79.0
e 70 37 65.0
e 70 259 99.0
e 70 207 21.0
e 70 18 37.0
e 70 162 63.0
e 70 274 83.0
e 70 178 70.0
e 70 134 67.0
e 70 16 60.0
e 70 8 67.0
e 71 251 4.0
e 71 276 5.0
e 72 59 1.0
e 72 118 5.0
e 73 32 47.0
e 73 205 1.0
e 74 124 1.0
e 74 137 10.0
e 76 182 7.0
e 76 86 1.0
e 76 204 1.0
e 79 123 11.0
e 79 101 80.0
e 79 287 31.0
e 79 6 92.0
e 79 84 84.0
e 79 24 11.0
e 79 124 29.0
e 79 238 6.0
e 79 307 17.0
e 79 272 11.0
e 79 161 34.0
e 79 57 13.0
e 79 3 45.0
e 79 225 29.0
e 79 223 64.0
e 79 37 30.0
e 79 299 96.0
e 79 172 90.0
e 79 140 82.0
e 79 250 5.0
e 79 167 22.0
e 79 224 46.0
e 79 232 62.0
e 79 239 25.0
e 79 135 23.0
e 79 102 19.0
e 79 42 92.0
e 79 105 73.0
e 79 282 80.0
e 79 19 22.0
e 79 17 99.0
e 79 29 83.0
e 79 229 76.0
e 79 111 78.0
e 79 213 54.0
e 79 162 43.0
e 80 75 6.0
e 80 226 30.0
e 80 103 4.0
e 81 47 12.0
e 81 11 8.0
e 81 177 11.0
e 82 8 4.0
e 82 239 4.0
e 83 9 2.0
e 83 277 3.0
e 85 261 1.0
e 85 290 5.0
e 85 47 6.0
e 87 301 2.0
e 88 242 9.0
e 88 285 5.0
e 88 220 5.0
e 91 13 2.0
e 91 270 1.0
e 93 213 1.0
e 94 254 1.0
e 94 306 2.0
e 95 0 5.0
e 95 31 7.0
e 95 101 1.0
e 95 23 1.0
e 96 32 72.0
e 96 33 3.0
e 97 101 2.0
e 98 192 1.0
e 98 105 4.0
e 98 290 5.0
e 99 36 1.0
e 99 157 1.0
e 100 68 1.0
e 100 45 1.0
e 100 261 3.0
e 102 203 1.0
e 104 158 2.0
e 104 209 1.0
e 106 128 5.0
e 106 70 57.0
e 107 215 3.0
e 107 204 22.0
e 107 123 19.0
e 107 43 10.0
e 107 239 17.0
e 107 142 3.0
e 107 170 13.0
e 107 207 19.0
e 107 244 25.0
e 107 24 5.0
e 108 113 8.0
e 108 309 9.0
e 108 7 5.0
e 108 181 10.0
e 111 210 1.0
e 112 39 5.0
e 114 315 2.0
e 115 278 1.0
e 115 44 2.0
e 117 124 4.0
e 117 140 3.0
e 117 232 1.0
e 118 208 4.0
e 118 295 3.0
e 119 190 4.0
e 120 68 3.0
e 121 112 1.0
e 121 24 1.0
e 122 272 1.0
e 122 63 2.0
e 123 5 12.0
e 123 171 6.0
e 126 211 4.0
e 127 234 4.0
e 127 83 1.0
e 127 157 8.0
e 130 154 3.0
e 130 31 10.0
e 130 102 9.0
e 130 111 20.0
e 130 181 12.0
e 130 197 2.0
e 130 223 22.0
e 130 129 7.0
e 130 93 24.0
e 130 97 17.0
e 131 250 11.0
e 131 179 25.0
e 131 0 16.0
e 131 271 16.0
e 131 10 21.0
e 131 225 5.0
e 131 304 10.0
e 131 272 19.0
e 131 283 6.0
e 131 240 24.0
e 132 136 2.0
e 132 49 2.0
e 134 165 43.0
e 134 195 41.0
e 134 147 27.0
e 134 154 37.0
e 134 274 22.0
e 134 311 39.0
e 134 159 2.0
e 134 183 4.0
e 134 80 38.0
e 134 112 49.0
e 134 94 22.0
e 134 100 30.0
e 134 300 49.0
e 134 171 8.0
e 135 121 7.0
e 135 247 3.0
e 135 277 5.0
e 135 275 9.0
e 135 136 2.0
e 135 75 2.0
e 135 300 1.0
e 137 120 4.0
e 137 46 5.0
e 137 264 9.0
e 138 45 3.0
e 138 46 9.0
e 138 160 5.0
e 139 84 1.0
e 141 152 5.0
e 141 40 4.0
e 141 56 1.0
e 144 225 1.0
e 144 1 14.0
e 145 52 6.0
e 145 26 1.0
e 146 162 1.0
e 148 209 40.0
e 148 32 54.0
e 148 202 8.0
e 148 171 4.0
e 148 100 89.0
e 148 208 95.0
e 148 287 93.0
e 148 232 4.0
e 148 68 56.0
e 148 29 72.0
e 148 7 80.0
e 148 107 52.0
e 148 35 64.0
e 148 220 88.0
e 148 181 49.0
e 148 85 95.0
e 148 99 38.0
e 148 116 12.0
e 148 212 11.0
e 148 20 100.0
e 148 105 56.0
e 148 8 33.0
e 148 115 88.0
e 148 270 55.0
e 148 81 28.0
e 148 309 92.0
e 148 17 80.0
e 148 25 43.0
e 148 263 80.0
e 148 198 5.0
e 148 193 91.0
e 148 38 19.0
e 148 230 86.0
e 148 316 28.0
e 148 258 68.0
e 148 310 28.0
e 149 239 1.0
e 151 140 1.0
e 151 202 1.0
e 153 62 14.0
e 153 201 23.0
e 153 188 34.0
e 153 27 10.0
e 153 0 10.0
e 153 65 19.0
e 153 162 17.0
e 153 269 15.0
e 155 220 1.0
e 156 220 1.0
e 156 161 5.0
e 159 271 1.0
e 160 292 1.0
e 160 41 1.0
e 161 14 3.0
e 163 262 9.0
e 164 47 1.0
e 166 39 4.0
e 166 308 11.0
e 166 279 10.0
e 166 239 8.0
e 166 28 11.0
e 169 79 7.0
e 172 26 79.0
e 172 206 49.0
e 172 227 8.0
e 172 0 99.0
e 172 157 95.0
e 172 306 81.0
e 172 283 72.0
e 172 316 34.0
e 172 55 30.0
e 172 204 54.0
e 172 9 19.0
e 172 279 49.0
e 172 273 89.0
e 172 179 91.0
e 172 289 31.0
e 172 174 78.0
e 172 284 45.0
e 172 67 68.0
e 172 214 46.0
e 172 115 26.0
e 172 124 71.0
e 172 267 10.0
e 172 245 45.0
e 172 27 99.0
e 172 314 49.0
e 172 259 93.0
e 172 39 70.0
e 172 7 66.0
e 172 106 4.0
e 172 129 38.0
e 172 20 33.0
e 172 126 37.0
e 172 251 24.0
e 172 263 15.0
e 172 74 39.0
e 173 180 3.0
e 173 10 1.0
e 176 215 14.0
e 176 318 5.0
e 176 276 9.0
e 176 15 22.0
e 176 202 1.0
e 176 317 2.0
e 176 87 13.0
e 176 92 1.0
e 176 131 3.0
e 176 181 13.0
e 182 193 1.0
e 184 51 2.0
e 184 42 1.0
e 184 80 1.0
e 185 106 7.0
e 185 115 7.0
e 185 72 9.0
e 185 310 5.0
e 185 62 3.0
e 186 175 2.0
e 186 225 3.0
e 187 50 8.0
e 187 150 5.0
e 187 202 3.0
e 188 290 93.0
e 188 112 32.0
e 188 51 77.0
e 188 2 31.0
e 188 107 8.0
e 188 11 8.0
e 188 138 86.0
e 188 148 64.0
e 188 277 75.0
e 188 227 63.0
e 188 183 73.0
e 188 4 12.0
e 188 253 62.0
e 188 75 18.0
e 188 252 70.0
e 188 171 48.0
e 188 9 60.0
e 188 285 21.0
e 188 269 19.0
e 188 1 40.0
e 188 268 86.0
e 188 88 56.0
e 188 108 6.0
e 188 127 47.0
e 188 218 38.0
e 188 68 25.0
e 188 155 72.0
e 188 132 17.0
e 188 5 52.0
e 188 82 98.0
e 188 317 87.0
e 188 60 1.0
e 188 12 47.0
e 188 34 91.0
e 188 247 21.0
e 188 150 75.0
e 189 206 1.0
e 189 11 5.0
e 190 159 5.0
e 192 213 9.0
e 192 197 22.0
e 192 104 8.0
e 192 259 4.0
e 192 156 4.0
e 192 145 9.0
e 192 216 6.0
e 194 106 1.0
e 194 151 1.0
e 195 263 5.0
e 198 276 6.0
e 199 165 2.0
e 199 271 1.0
e 200 220 1.0
e 210 316 2.0
e 212 306 17.0
e 212 273 16.0
e 212 109 5.0
e 212 37 11.0
e 212 140 7.0
e 212 294 69.0
e 212 23 10.0
e 212 262 67.0
e 212 309 24.0
e 216 208 2.0
e 216 288 3.0
e 217 13 1.0
e 217 157 1.0
e 219 244 5.0
e 221 265 5.0
e 222 100 1.0
e 226 248 4.0
e 226 155 53.0
e 226 153 61.0
e 226 192 12.0
e 226 207 63.0
e 226 183 55.0
e 226 303 33.0
e 226 260 60.0
e 226 72 10.0
e 226 261 79.0
e 226 279 23.0
e 226 48 49.0
e 226 277 77.0
e 226 166 95.0
e 226 291 6.0
e 226 136 61.0
e 226 98 42.0
e 226 39 15.0
e 226 227 52.0
e 226 285 39.0
e 226 49 23.0
e 226 187 71.0
e 226 249 86.0
e 226 241 73.0
e 226 188 77.0
e 226 113 52.0
e 226 52 55.0
e 226 143 69.0
e 226 292 5.0
e 226 185 96.0
e 226 204 97.0
e 226 177 26.0
e 226 102 14.0
e 226 73 43.0
e 229 0 11.0
e 229 159 1.0
e 231 307 2.0
e 231 243 23.0
e 233 45 2.0
e 233 65 6.0
e 233 134 12.0
e 234 292 1.0
e 234 36 5.0
e 235 1 99.0
e 236 212 2.0
e 236 287 5.0
e 236 101 1.0
e 236 167 4.0
e 237 259 91.0
e 237 205 59.0
e 237 181 94.0
e 237 209 75.0
e 237 13 24.0
e 237 143 64.0
e 237 127 4.0
e 237 271 14.0
e 237 204 97.0
e 237 29 85.0
e 237 75 19.0
e 237 115 43.0
e 237 171 54.0
e 237 37 72.0
e 237 193 56.0
e 237 148 95.0
e 237 284 5.0
e 237 136 77.0
e 237 86 18.0
e 237 101 25.0
e 237 161 77.0
e 237 81 22.0
e 237 53 80.0
e 237 263 42.0
e 237 206 46.0
e 237 240 11.0
e 237 109 36.0
e 237 203 75.0
e 237 163 44.0
e 237 251 12.0
e 237 76 93.0
e 237 261 32.0
e 237 207 17.0
e 237 224 53.0
e 237 208 52.0
e 237 25 62.0
e 238 138 10.0
e 241 195 1.0
e 242 19 1.0
e 242 149 2.0
e 242 148 61.0
e 243 2 29.0
e 243 100 19.0
e 243 219 12.0
e 243 209 20.0
e 243 106 45.0
e 243 215 25.0
e 243 110 29.0
e 243 3 5.0
e 243 225 37.0
e 243 135 2.0
e 243 171 22.0
e 243 60 15.0
e 243 101 46.0
e 243 164 45.0
e 243 69 35.0
e 243 306 4.0
e 243 4 17.0
e 246 225 99.0
e 246 247 73.0
e 246 55 30.0
e 246 263 96.0
e 246 114 100.0
e 246 49 67.0
e 246 219 22.0
e 246 200 44.0
e 246 147 38.0
e 246 297 52.0
e 246 90 84.0
e 246 5 68.0
e 246 167 80.0
e 246 253 99.0
e 246 290 37.0
e 246 124 62.0
e 246 229 57.0
e 246 60 100.0
e 246 168 52.0
e 246 39 40.0
e 246 296 94.0
e 246 74 37.0
e 246 204 1.0
e 246 62 51.0
e 246 89 17.0
e 246 104 66.0
e 246 1 62.0
e 246 155 81.0
e 246 300 88.0
e 246 189 89.0
e 246 178 56.0
e 246 201 7.0
e 246 223 32.0
e 246 216 18.0
e 246 217 100.0
e 246 67 57.0
e 246 19 84.0
e 249 93 5.0
e 252 291 41.0
e 252 27 5.0
e 255 52 6.0
e 256 207 2.0
e 256 155 4.0
e 256 43 10.0
e 257 219 5.0
e 258 210 2.0
e 260 134 40.0
e 260 9 6.0
e 260 120 67.0
e 260 249 47.0
e 260 67 40.0
e 260 286 46.0
e 260 151 21.0
e 260 199 31.0
e 260 215 45.0
e 260 220 88.0
e 260 284 52.0
e 260 34 86.0
e 260 270 12.0
e 260 297 20.0
e 260 7 81.0
e 260 299 92.0
e 260 305 91.0
e 260 47 42.0
e 260 298 33.0
e 260 317 39.0
e 260 27 47.0
e 260 248 65.0
e 260 108 44.0
e 260 190 95.0
e 260 300 1.0
e 260 20 48.0
e 260 296 52.0
e 260 239 74.0
e 260 196 29.0
e 260 64 3.0
e 260 6 14.0
e 260 216 83.0
e 260 157 81.0
e 260 245 29.0
e 260 197 15.0
e 260 101 47.0
e 262 14 29.0
e 262 256 34.0
e 262 22 65.0
e 262 10 84.0
e 262 227 72.0
e 262 248 54.0
e 262 179 97.0
e 262 156 9.0
e 262 92 29.0
e 262 99 14.0
e 262 191 61.0
e 262 263 54.0
e 262 255 52.0
e 262 52 6.0
e 262 32 47.0
e 262 239 51.0
e 262 2 88.0
e 262 93 70.0
e 262 298 22.0
e 262 274 71.0
e 262 290 27.0
e 262 13 100.0
e 262 17 29.0
e 262 91 89.0
e 262 190 80.0
e 262 102 42.0
e 262 31 6.0
e 262 75 51.0
e 262 79 62.0
e 262 173 26.0
e 262 264 37.0
e 262 1 47.0
e 262 237 26.0
e 262 225 99.0
e 262 194 37.0
e 265 38 4.0
e 265 63 6.0
e 266 311 4.0
e 266 35 2.0
e 268 163 2.0
e 269 302 6.0
e 269 216 6.0
e 281 273 2.0
e 283 177 87.0
e 283 223 48.0
e 283 181 14.0
e 283 227 40.0
e 283 65 56.0
e 283 270 13.0
e 283 128 19.0
e 283 99 80.0
e 283 301 22.0
e 283 109 4.0
e 283 258 21.0
e 283 174 5.0
e 283 53 67.0
e 283 144 7.0
e 283 279 24.0
e 283 118 66.0
e 283 267 62.0
e 283 112 95.0
e 283 232 96.0
e 283 106 34.0
e 283 218 86.0
e 283 38 46.0
e 283 21 64.0
e 283 119 94.0
e 283 234 58.0
e 283 220 73.0
e 283 271 35.0
e 283 299 99.0
e 283 3 50.0
e 283 34 89.0
e 283 217 56.0
e 283 78 86.0
e 283 197 73.0
e 286 113 35.0
e 286 300 22.0
e 286 114 68.0
e 286 255 3.0
e 286 33 52.0
e 286 258 87.0
e 286 178 65.0
e 286 186 99.0
e 286 75 1.0
e 286 31 94.0
e 286 130 94.0
e 286 165 50.0
e 286 117 69.0
e 286 122 42.0
e 286 118 24.0
e 286 191 20.0
e 286 246 34.0
e 286 86 54.0
e 286 74 36.0
e 286 236 19.0
e 286 164 32.0
e 286 210 82.0
e 286 16 20.0
e 286 249 24.0
e 286 7 42.0
e 286 158 76.0
e 286 218 45.0
e 286 288 60.0
e 286 302 79.0
e 286 240 24.0
e 286 132 2.0
e 286 174 89.0
e 286 125 5.0
e 286 227 33.0
e 286 29 87.0
e 286 107 61.0
e 289 9 2.0
e 291 238 19.0
e 291 259 58.0
e 291 283 26.0
e 291 45 49.0
e 291 80 8.0
e 291 157 30.0
e 291 172 5.0
e 291 255 93.0
e 291 121 61.0
e 291 262 68.0
e 291 27 80.0
e 291 55 45.0
e 291 239 93.0
e 291 228 24.0
e 291 260 26.0
e 291 140 26.0
e 291 54 56.0
e 291 198 81.0
e 291 118 11.0
e 291 104 38.0
e 291 206 8.0
e 291 209 97.0
e 291 303 42.0
e 291 224 99.0
e 291 81 90.0
e 291 205 13.0
e 291 123 85.0
e 291 34 79.0
e 291 141 97.0
e 291 202 3.0
e 291 173 48.0
e 291 24 1.0
e 291 1 75.0
e 291 68 68.0
e 293 253 1.0
e 293 167 1.0
e 294 223 33.0
e 294 204 25.0
e 294 33 39.0
e 294 172 55.0
e 294 233 74.0
e 294 57 66.0
e 294 224 16.0
e 294 54 88.0
e 294 295 8.0
e 294 112 44.0
e 294 285 39.0
e 294 203 89.0
e 294 291 70.0
e 294 201 15.0
e 294 36 71.0
e 294 84 47.0
e 294 262 34.0
e 294 176 52.0
e 294 138 95.0
e 294 139 12.0
e 294 198 65.0
e 294 301 52.0
e 294 74 48.0
e 294 106 63.0
e 294 182 25.0
e 294 126 28.0
e 294 183 14.0
e 294 309 20.0
e 294 103 34.0
e 294 29 79.0
e 294 159 97.0
e 294 123 53.0
e 294 243 18.0
e 294 131 30.0
e 294 155 71.0
e 299 277 1.0
e 299 92 1.0
e 304 245 1.0
e 305 8 4.0
e 307 62 12.0
e 307 288 10.0
e 307 80 12.0
e 312 54 22.0
e 312 200 24.0
e 312 52 18.0
e 312 201 20.0
e 312 17 6.0
e 312 248 8.0
e 312 134 32.0
e 313 193 5.0
e 313 209 1.0
e 319 2 1.0
e 319 253 3.0
